
50
12768

615 415
588 288
1045 845
744 444
729 529
852 552
539 339
840 640
1101 901
372 72
761 561
465 265
856 656
924 624
246 46
313 113
729 529
1059 859
1098 798
1024 824
438 138
551 351
777 577
567 367
431 231
1123 923
936 636
599 399
677 477
900 700
960 760
1080 780
535 335
1168 968
964 764
471 271
372 172
631 431
461 261
1078 878
210 10
1018 818
462 162
1012 812
633 433
432 132
1186 986
619 419
1179 979
523 323
